%%% static parameters %%%
timespan = 1;
Fact = [2];
Distr1 = [5];
Distr2 = [10];
Clients_N = [120];
Demand_W = [15];
Lt0 = [4];
Lt1 = [4];
SS_ = [0.85];
DS_D = [5];
K = [200];
MA = [500];
%%% dynamic parameters %%%
lost_ratio_sales_ret_th = 0.29901416152476357;
lost_ratio_sales_ret_w = 2;
lost_ratio_sales_dis_th = 0.6241161957991167;
lost_ratio_sales_dis_w = 13;
lost_ratio_sales_fac_th = 0.12183286423897988;
lost_ratio_sales_fac_w = 76;
stock_customer_MA_mean_relative_th = 0.3625650387331205;
stock_customer_MA_mean_relative_w = 25;
stock_distributor_MA_mean_relative_th = 0.5000528204705105;
stock_distributor_MA_mean_relative_w = 91;
stock_retailer_MA_mean_relative_th = 0.8171100258132156;
stock_retailer_MA_mean_relative_w = 31;
stock_factory_MA_mean_relative_th = 0.683442624692174;
stock_factory_MA_mean_relative_w = 43;
